\ENCODING=ISO-8859-1
\Problem name: IloCplex

Maximize
 obj:
Subject To
 Cst_capacity_car_0#0: 2 x(1)(0)#0 + 2 x(2)(0)#1 + 2 x(3)(0)#2 + 3 x(4)(0)#3
                       + 3 x(5)(0)#4 + 4 x(6)(0)#5 <= 8
 Cst_capacity_car_1#1: 2 x(1)(1)#6 + 2 x(2)(1)#7 + 2 x(3)(1)#8 + 3 x(4)(1)#9
                       + 3 x(5)(1)#10 + 4 x(6)(1)#11 <= 8
 Cst_x_0_a#2:          x(0)(0)#12 + x(0)(1)#13 <= 1
 Cst_x_0_a#3:          x(0)(0)#12 + x(0)(1)#13 >= 1
 Cst_x_1_a#4:          x(1)(0)#0 + x(1)(1)#6 <= 1
 Cst_x_1_a#5:          x(1)(0)#0 + x(1)(1)#6 >= 1
 Cst_x_2_a#6:          x(2)(0)#1 + x(2)(1)#7 <= 1
 Cst_x_2_a#7:          x(2)(0)#1 + x(2)(1)#7 >= 1
 Cst_x_3_a#8:          x(3)(0)#2 + x(3)(1)#8 <= 1
 Cst_x_3_a#9:          x(3)(0)#2 + x(3)(1)#8 >= 1
 Cst_x_4_a#10:         x(4)(0)#3 + x(4)(1)#9 <= 1
 Cst_x_4_a#11:         x(4)(0)#3 + x(4)(1)#9 >= 1
 Cst_x_5_a#12:         x(5)(0)#4 + x(5)(1)#10 <= 1
 Cst_x_5_a#13:         x(5)(0)#4 + x(5)(1)#10 >= 1
 Cst_x_6_a#14:         x(6)(0)#5 + x(6)(1)#11 <= 1
 Cst_x_6_a#15:         x(6)(0)#5 + x(6)(1)#11 >= 1
Bounds
 0 <= x(1)(0)#0 <= 1
 0 <= x(2)(0)#1 <= 1
 0 <= x(3)(0)#2 <= 1
 0 <= x(4)(0)#3 <= 1
 0 <= x(5)(0)#4 <= 1
 0 <= x(6)(0)#5 <= 1
 0 <= x(1)(1)#6 <= 1
 0 <= x(2)(1)#7 <= 1
 0 <= x(3)(1)#8 <= 1
 0 <= x(4)(1)#9 <= 1
 0 <= x(5)(1)#10 <= 1
 0 <= x(6)(1)#11 <= 1
 0 <= x(0)(0)#12 <= 1
 0 <= x(0)(1)#13 <= 1
Binaries
 x(1)(0)#0  x(2)(0)#1  x(3)(0)#2  x(4)(0)#3  x(5)(0)#4  x(6)(0)#5  x(1)(1)#6 
 x(2)(1)#7  x(3)(1)#8  x(4)(1)#9  x(5)(1)#10  x(6)(1)#11  x(0)(0)#12 
 x(0)(1)#13 
End
